# Solution for model r5_t9_m9_3 Batch Number: 2
# Finished Task: 9 / 9
# Makespan: 597.0, Total Distance: 179.0, Total Time: 0.4312
# R O S F Batch
0 0 13 0.0 0.0 -1
1 1 12 0.0 0.0 -1
2 2 5 0.0 0.0 -1
3 3 8 0.0 0.0 -1
4 4 10 0.0 0.0 -1
5 2 9 371.0 410.0 0
6 2 -1 504.0 524.0 1
7 0 -1 524.0 563.0 1
8 3 -1 105.0 126.0 0
9 2 6 444.0 465.0 0
10 4 11 267.0 305.0 0
11 4 -1 563.0 597.0 1
12 1 -1 142.0 168.0 0
13 0 7 453.0 489.0 0
